projected/problems_b25_r0_d7_m100_s666/_DIMACS/b25_d7_r0_s666_047.cnf
p cnf 213 345 25
c p show 1 2 3 4 5 6 7 8 9 10 11 12 13 14 15 16 17 18 19 20 21 22 23 24 25
-86 -7 0
-86 25 0
-87 4 0
-87 -14 0
-88 87 86 0
-89 9 -10 0
-90 10 -9 0
-91 90 0
-91 89 0
-92 -5 17 0
-93 92 0
-93 91 0
-94 93 88 0
-95 7 0
-95 8 0
-96 14 -3 0
-97 96 95 0
-98 -6 11 0
-99 -14 0
-99 -16 0
-100 99 0
-100 98 0
-101 100 0
-101 97 0
-102 6 0
-102 -11 0
-103 14 16 0
-104 103 102 0
-105 -7 -8 0
-106 -14 0
-106 3 0
-107 106 0
-107 105 0
-108 107 0
-108 104 0
-109 108 101 0
-110 109 94 0
-111 -2 0
-111 11 0
-112 17 25 0
-113 112 111 0
-114 -17 0
-114 -25 0
-115 2 -11 0
-116 115 114 0
-117 116 0
-117 113 0
-118 -7 0
-118 -13 0
-119 -2 0
-119 24 0
-120 119 118 0
-121 120 0
-121 117 0
-122 8 23 0
-123 8 -23 0
-124 123 122 0
-125 16 0
-125 23 0
-126 1 0
-126 -15 0
-127 126 0
-127 125 0
-128 127 124 0
-129 128 121 0
-130 129 0
-130 110 0
-131 114 0
-131 115 0
-132 111 0
-132 112 0
-133 132 131 0
-134 7 13 0
-135 2 -24 0
-136 135 0
-136 134 0
-137 136 133 0
-138 -8 0
-138 -23 0
-139 -8 0
-139 23 0
-140 139 0
-140 138 0
-141 -16 -23 0
-142 -1 15 0
-143 142 141 0
-144 143 0
-144 140 0
-145 144 0
-145 137 0
-146 7 -25 0
-147 -4 14 0
-148 147 0
-148 146 0
-149 -9 0
-149 10 0
-150 -10 0
-150 9 0
-151 150 149 0
-152 5 0
-152 -17 0
-153 152 151 0
-154 153 0
-154 148 0
-155 104 107 0
-156 97 100 0
-157 156 0
-157 155 0
-158 157 0
-158 154 0
-159 158 0
-159 145 0
-160 159 130 0
-161 -17 0
-161 -2 0
-162 -4 0
-162 14 0
-163 162 161 0
-164 -24 -12 0
-165 -12 0
-166 165 164 0
-167 166 163 0
-168 -2 -9 0
-169 9 2 0
-170 169 0
-170 168 0
-171 23 0
-171 -11 0
-172 171 170 0
-173 2 0
-173 13 0
-174 6 15 0
-175 174 0
-175 173 0
-176 175 172 0
-177 176 0
-177 167 0
-178 25 0
-178 -24 0
-179 4 20 0
-180 179 0
-180 178 0
-181 19 12 0
-182 -10 0
-182 11 0
-183 -11 0
-183 10 0
-184 183 182 0
-185 184 181 0
-186 185 0
-186 180 0
-187 12 0
-187 18 0
-188 20 0
-188 5 0
-189 188 0
-189 187 0
-190 -21 0
-190 22 0
-191 22 0
-191 -24 0
-192 191 0
-192 190 0
-193 192 0
-193 189 0
-194 21 -22 0
-195 -22 24 0
-196 195 194 0
-197 -12 -18 0
-198 -20 -5 0
-199 198 197 0
-200 199 0
-200 196 0
-201 200 193 0
-202 201 186 0
-203 202 0
-203 177 0
-204 203 0
-204 160 0
-205 19 0
-205 -15 0
-206 24 -18 0
-207 206 0
-207 205 0
-208 20 0
-208 -20 0
-209 -22 0
-209 8 0
-210 209 208 0
-211 210 0
-211 207 0
-212 1 -13 0
-213 8 -15 0
-26 213 0
-26 212 0
-78 -14 16 0
-79 -13 -14 0
-80 79 78 0
-81 80 26 0
-82 81 0
-82 211 0
-83 -14 0
-83 13 0
-84 9 -19 0
-85 84 83 0
-27 -5 0
-27 -7 0
-28 14 0
-28 -3 0
-29 28 0
-29 27 0
-30 29 0
-30 85 0
-31 -25 0
-31 12 0
-32 -5 -12 0
-33 32 0
-33 31 0
-34 -22 0
-34 3 0
-35 -17 -14 0
-36 35 0
-36 34 0
-37 36 0
-37 33 0
-38 37 0
-38 30 0
-39 38 82 0
-40 16 0
-40 -20 0
-41 10 25 0
-42 41 0
-42 40 0
-43 4 0
-43 6 0
-44 25 0
-44 13 0
-45 44 43 0
-46 45 0
-46 42 0
-47 9 18 0
-48 10 0
-48 -24 0
-49 48 47 0
-50 -10 24 0
-51 -9 0
-51 -18 0
-52 51 50 0
-53 52 0
-53 49 0
-54 -8 0
-54 -24 0
-55 8 0
-55 13 0
-56 55 0
-56 54 0
-57 56 0
-57 53 0
-58 57 0
-58 46 0
-59 -4 0
-59 -7 0
-60 -1 22 0
-61 60 59 0
-62 16 24 0
-63 -2 20 0
-64 63 62 0
-65 64 61 0
-66 -13 22 0
-67 25 0
-67 4 0
-68 67 0
-68 66 0
-69 -12 0
-69 5 0
-70 -5 0
-70 12 0
-71 70 69 0
-72 5 0
-72 7 0
-73 72 0
-73 71 0
-74 73 0
-74 68 0
-75 74 65 0
-76 75 58 0
-77 76 0
-77 39 0
77 204 0
-112 -114 0
-114 -112 0
-111 -115 0
-117 -133 0
-133 -117 0
-134 -118 0
-135 -119 0
-136 -120 0
-137 -121 0
-122 -138 0
-139 -123 0
-123 -139 0
-124 -140 0
-140 -124 0
-125 -141 0
-126 -142 0
-127 -143 0
-143 -127 0
-144 -128 0
-145 -129 0
-129 -145 0
-146 -86 0
-86 -146 0
-147 -87 0
-87 -147 0
-88 -148 0
-148 -88 0
-91 -151 0
-151 -91 0
-92 -152 0
-152 -92 0
-153 -93 0
-154 -94 0
-94 -154 0
-102 -98 0
-103 -99 0
-104 -100 0
-100 -104 0
-95 -105 0
-96 -106 0
-97 -107 0
-107 -97 0
-157 -109 0
-109 -157 0
-110 -158 0
-158 -110 0
-190 -194 0
-191 -195 0
-192 -196 0
-197 -187 0
-188 -198 0
-198 -188 0
-199 -189 0
-48 -50 0
-50 -48 0
-47 -51 0
