projected/problems_b25_r0_d7_m100_s666/b25_d7_r0_s666_047.smt2
(set-logic QF_UF)
(declare-fun A0 () Bool)
(declare-fun A1 () Bool)
(declare-fun A2 () Bool)
(declare-fun A3 () Bool)
(declare-fun A4 () Bool)
(declare-fun A5 () Bool)
(declare-fun A6 () Bool)
(declare-fun A7 () Bool)
(declare-fun A8 () Bool)
(declare-fun A9 () Bool)
(declare-fun A10 () Bool)
(declare-fun A11 () Bool)
(declare-fun A12 () Bool)
(declare-fun A13 () Bool)
(declare-fun A14 () Bool)
(declare-fun A15 () Bool)
(declare-fun A16 () Bool)
(declare-fun A17 () Bool)
(declare-fun A18 () Bool)
(declare-fun A19 () Bool)
(declare-fun A20 () Bool)
(declare-fun A21 () Bool)
(declare-fun A22 () Bool)
(declare-fun A23 () Bool)
(declare-fun A24 () Bool)
(assert (let ((.def_0 (or A16 A24))) (let ((.def_1 (not .def_0))) (let ((.def_2 (not A1))) (let ((.def_3 (and .def_2 A10))) (let ((.def_4 (= .def_3 .def_1))) (let ((.def_5 (not .def_4))) (let ((.def_6 (or A6 A12))) (let ((.def_7 (not A23))) (let ((.def_8 (or A1 .def_7))) (let ((.def_9 (and .def_8 .def_6))) (let ((.def_10 (or .def_9 .def_5))) (let ((.def_11 (or A7 A22))) (let ((.def_12 (not A7))) (let ((.def_13 (and .def_12 A22))) (let ((.def_14 (not .def_13))) (let ((.def_15 (or .def_14 .def_11))) (let ((.def_16 (not .def_15))) (let ((.def_17 (and A15 A22))) (let ((.def_18 (not A14))) (let ((.def_19 (and A0 .def_18))) (let ((.def_20 (and .def_19 .def_17))) (let ((.def_21 (not .def_20))) (let ((.def_22 (and .def_21 .def_16))) (let ((.def_23 (and .def_22 .def_10))) (let ((.def_24 (not .def_23))) (let ((.def_25 (not A24))) (let ((.def_26 (or A6 .def_25))) (let ((.def_27 (not .def_26))) (let ((.def_28 (not A3))) (let ((.def_29 (or .def_28 A13))) (let ((.def_30 (not .def_29))) (let ((.def_31 (or .def_30 .def_27))) (let ((.def_32 (not .def_31))) (let ((.def_33 (not A8))) (let ((.def_34 (not A9))) (let ((.def_35 (= .def_34 .def_33))) (let ((.def_36 (not .def_35))) (let ((.def_37 (not A4))) (let ((.def_38 (or .def_37 A16))) (let ((.def_39 (not .def_38))) (let ((.def_40 (or .def_39 .def_36))) (let ((.def_41 (and .def_40 .def_32))) (let ((.def_42 (not .def_41))) (let ((.def_43 (not A10))) (let ((.def_44 (and A5 .def_43))) (let ((.def_45 (or A13 A15))) (let ((.def_46 (or .def_45 .def_44))) (let ((.def_47 (not .def_46))) (let ((.def_48 (and A6 A7))) (let ((.def_49 (not A2))) (let ((.def_50 (or A13 .def_49))) (let ((.def_51 (or .def_50 .def_48))) (let ((.def_52 (not .def_51))) (let ((.def_53 (= .def_52 .def_47))) (let ((.def_54 (not .def_53))) (let ((.def_55 (or .def_54 .def_42))) (let ((.def_56 (not .def_55))) (let ((.def_57 (= .def_56 .def_24))) (let ((.def_58 (not .def_57))) (let ((.def_59 (not A16))) (let ((.def_60 (and .def_59 .def_2))) (let ((.def_61 (and .def_28 A13))) (let ((.def_62 (or .def_61 .def_60))) (let ((.def_63 (not .def_62))) (let ((.def_64 (not A11))) (let ((.def_65 (or .def_7 .def_64))) (let ((.def_66 (and .def_64 .def_64))) (let ((.def_67 (or .def_66 .def_65))) (let ((.def_68 (not .def_67))) (let ((.def_69 (and .def_68 .def_63))) (let ((.def_70 (not .def_69))) (let ((.def_71 (= .def_33 A1))) (let ((.def_72 (not .def_71))) (let ((.def_73 (and A22 .def_43))) (let ((.def_74 (not .def_73))) (let ((.def_75 (and .def_74 .def_72))) (let ((.def_76 (not A12))) (let ((.def_77 (or .def_2 .def_76))) (let ((.def_78 (not .def_77))) (let ((.def_79 (or A5 A14))) (let ((.def_80 (and .def_79 .def_78))) (let ((.def_81 (not .def_80))) (let ((.def_82 (and .def_81 .def_75))) (let ((.def_83 (not .def_82))) (let ((.def_84 (and .def_83 .def_70))) (let ((.def_85 (not .def_84))) (let ((.def_86 (or .def_25 A23))) (let ((.def_87 (not A19))) (let ((.def_88 (and .def_28 .def_87))) (let ((.def_89 (or .def_88 .def_86))) (let ((.def_90 (not A18))) (let ((.def_91 (and .def_90 .def_64))) (let ((.def_92 (not .def_91))) (let ((.def_93 (= .def_43 .def_34))) (let ((.def_94 (not .def_93))) (let ((.def_95 (or .def_94 .def_92))) (let ((.def_96 (not .def_95))) (let ((.def_97 (or .def_96 .def_89))) (let ((.def_98 (not .def_97))) (let ((.def_99 (not A20))) (let ((.def_100 (and .def_99 A21))) (let ((.def_101 (and A21 .def_7))) (let ((.def_102 (and .def_101 .def_100))) (let ((.def_103 (not A17))) (let ((.def_104 (or .def_64 .def_103))) (let ((.def_105 (and A19 A4))) (let ((.def_106 (not .def_105))) (let ((.def_107 (or .def_106 .def_104))) (let ((.def_108 (= .def_107 .def_102))) (let ((.def_109 (not .def_108))) (let ((.def_110 (or .def_109 .def_98))) (let ((.def_111 (not .def_110))) (let ((.def_112 (or .def_111 .def_85))) (let ((.def_113 (not .def_112))) (let ((.def_114 (and .def_113 .def_58))) (let ((.def_115 (and A18 .def_18))) (let ((.def_116 (and .def_7 A17))) (let ((.def_117 (not .def_116))) (let ((.def_118 (and .def_117 .def_115))) (let ((.def_119 (not .def_118))) (let ((.def_120 (or .def_87 A19))) (let ((.def_121 (not .def_120))) (let ((.def_122 (not A21))) (let ((.def_123 (and .def_122 A7))) (let ((.def_124 (or .def_123 .def_121))) (let ((.def_125 (not .def_124))) (let ((.def_126 (or .def_125 .def_119))) (let ((.def_127 (or A0 .def_76))) (let ((.def_128 (and .def_12 A14))) (let ((.def_129 (not .def_128))) (let ((.def_130 (and .def_129 .def_127))) (let ((.def_131 (not A13))) (let ((.def_132 (or .def_131 A15))) (let ((.def_133 (or .def_76 .def_131))) (let ((.def_134 (or .def_133 .def_132))) (let ((.def_135 (or .def_134 .def_130))) (let ((.def_136 (not .def_135))) (let ((.def_137 (or .def_136 .def_126))) (let ((.def_138 (not .def_137))) (let ((.def_139 (or A13 .def_76))) (let ((.def_140 (not .def_139))) (let ((.def_141 (or A8 .def_90))) (let ((.def_142 (or .def_141 .def_140))) (let ((.def_143 (or A4 A6))) (let ((.def_144 (not .def_143))) (let ((.def_145 (and A13 .def_49))) (let ((.def_146 (and .def_145 .def_144))) (let ((.def_147 (and .def_146 .def_142))) (let ((.def_148 (and .def_25 A11))) (let ((.def_149 (or .def_37 .def_64))) (let ((.def_150 (and .def_149 .def_148))) (let ((.def_151 (not .def_150))) (let ((.def_152 (and .def_122 A2))) (let ((.def_153 (or .def_59 .def_131))) (let ((.def_154 (and .def_153 .def_152))) (let ((.def_155 (not .def_154))) (let ((.def_156 (or .def_155 .def_151))) (let ((.def_157 (not .def_156))) (let ((.def_158 (and .def_157 .def_147))) (let ((.def_159 (or .def_158 .def_138))) (let ((.def_160 (not A15))) (let ((.def_161 (or .def_160 A19))) (let ((.def_162 (and .def_34 .def_25))) (let ((.def_163 (or .def_162 .def_161))) (let ((.def_164 (not .def_163))) (let ((.def_165 (and A3 A5))) (let ((.def_166 (not .def_165))) (let ((.def_167 (or .def_25 .def_76))) (let ((.def_168 (and .def_167 .def_166))) (let ((.def_169 (not .def_168))) (let ((.def_170 (and .def_169 .def_164))) (let ((.def_171 (and A9 .def_7))) (let ((.def_172 (not .def_171))) (let ((.def_173 (or A8 A17))) (let ((.def_174 (= .def_173 .def_172))) (let ((.def_175 (not .def_174))) (let ((.def_176 (or A7 A23))) (let ((.def_177 (not .def_176))) (let ((.def_178 (or .def_12 .def_76))) (let ((.def_179 (not .def_178))) (let ((.def_180 (and .def_179 .def_177))) (let ((.def_181 (not .def_180))) (let ((.def_182 (or .def_181 .def_175))) (let ((.def_183 (not .def_182))) (let ((.def_184 (and .def_183 .def_170))) (let ((.def_185 (or A3 A6))) (let ((.def_186 (not .def_185))) (let ((.def_187 (not A0))) (let ((.def_188 (or .def_187 A21))) (let ((.def_189 (or .def_188 .def_186))) (let ((.def_190 (not .def_189))) (let ((.def_191 (and .def_160 .def_7))) (let ((.def_192 (or .def_2 A19))) (let ((.def_193 (not .def_192))) (let ((.def_194 (and .def_193 .def_191))) (let ((.def_195 (and .def_194 .def_190))) (let ((.def_196 (or .def_76 A21))) (let ((.def_197 (not .def_196))) (let ((.def_198 (and A24 A3))) (let ((.def_199 (not .def_198))) (let ((.def_200 (or .def_199 .def_197))) (let ((.def_201 (not .def_200))) (let ((.def_202 (= .def_37 .def_64))) (let ((.def_203 (not .def_202))) (let ((.def_204 (not A6))) (let ((.def_205 (or .def_37 .def_204))) (let ((.def_206 (not .def_205))) (let ((.def_207 (and .def_206 .def_203))) (let ((.def_208 (and .def_207 .def_201))) (let ((.def_209 (not .def_208))) (let ((.def_210 (and .def_209 .def_195))) (let ((.def_211 (not .def_210))) (let ((.def_212 (or .def_211 .def_184))) (let ((.def_213 (and .def_212 .def_159))) (let ((.def_214 (or .def_213 .def_114))) .def_214))))))))))))))))))))))))))))))))))))))))))))))))))))))))))))))))))))))))))))))))))))))))))))))))))))))))))))))))))))))))))))))))))))))))))))))))))))))))))))))))))))))))))))))))))))))))))))))))))))))))))))))))))))))))
(check-sat)
